/*********************************************
 * OPL 22.1.2.0 Data
 * Author: adrien.dacostaveiga
 * Creation Date: Apr 1, 2026 at 3:36:00 PM
 *********************************************/
 
// =====================================================
// CROSS VALIDATION DATASET (AIRLAND1)
// =====================================================


// ======================
// DIMENSIONS
// ======================

n = 10;
m = 1;


// ======================
// OBJECTIF COMMUN (P1 / P2 / P3)
// ======================
// T = target times (Airland1 dataset cohérent utilisé précédemment)

T = [
  90, 150, 60, 70, 80,
  95, 100, 105, 115, 140
];


// ======================
// PENALITIES (identiques sur tous modèles)
// ======================

cMinus = [
  10, 10, 30, 30, 30,
  30, 30, 30, 30, 30
];

cPlus = [
  10, 10, 30, 30, 30,
  30, 30, 30, 30, 30
];


// ======================
// DEADLINES (Airland1 cohérent)
// ======================

A = [129, 195, 89, 96, 110, 120, 124, 126, 135, 160];


// ======================
// TAXI TIMES (m = 1)
// ======================
// cohérent avec P3 simplifié

t = [
  [10],
  [10],
  [10],
  [10],
  [10],
  [10],
  [10],
  [10],
  [10],
  [10]
];


// ======================
// SOLUTIONS P1 / P2 / P3
// ======================
// IMPORTANT : valeurs alignées avec tes résultats récents

xP1 = [129, 159, 60, 70, 80, 90, 98, 106, 114, 144];

xP2 = [54, 120, 14, 21, 35, 45, 49, 51, 60, 85];

xP3 = [54, 120, 14, 22, 35, 69, 77, 85, 93, 101];


// ======================
// RUNWAY ASSIGNMENT
// ======================

runwayP1 = [1,1,1,1,1,1,1,1,1,1];
runwayP2 = [1,1,1,1,1,1,1,1,1,1];
runwayP3 = [1,1,1,1,1,1,1,1,1,1];